(set-logic QF_UF)
(declare-sort Z 0)
(declare-fun circuit () Bool)
(declare-fun input () Bool)
(declare-fun reg () Bool)
(declare-fun flash () Z)
(declare-fun nf () Z)
(declare-fun nf0 () Z)
(assert (not (= (not (= flash nf0)) false)))
(assert (= (not (= flash nf0)) (not (= nf0 nf0))))
(assert (= (not (= nf0 nf0)) false))
(check-sat)
(exit)
